sat
(
  (define-fun C2_VM13 () Int
    0)
  (define-fun MemProv4 () Int
    3750)
  (define-fun C4_VM5 () Int
    0)
  (define-fun C1_VM12 () Int
    1)
  (define-fun VM11Type () Int
    433)
  (define-fun C4_VM7 () Int
    0)
  (define-fun StorageProv11 () Int
    2000)
  (define-fun MemProv12 () Int
    3750)
  (define-fun VM15Type () Int
    433)
  (define-fun StorageProv9 () Int
    2000)
  (define-fun C5_VM8 () Int
    1)
  (define-fun C5_VM7 () Int
    0)
  (define-fun VM10Type () Int
    433)
  (define-fun MemProv11 () Int
    3750)
  (define-fun C3_VM5 () Int
    0)
  (define-fun VM14Type () Int
    433)
  (define-fun C4_VM6 () Int
    0)
  (define-fun C1_VM13 () Int
    1)
  (define-fun C1_VM8 () Int
    0)
  (define-fun PriceProv9 () Int
    116)
  (define-fun ProcProv7 () Int
    4)
  (define-fun C2_VM2 () Int
    1)
  (define-fun C4_VM14 () Int
    0)
  (define-fun MemProv13 () Int
    3750)
  (define-fun C3_VM12 () Int
    0)
  (define-fun ProcProv8 () Int
    4)
  (define-fun StorageProv10 () Int
    2000)
  (define-fun PriceProv1 () Int
    116)
  (define-fun C1_VM1 () Int
    0)
  (define-fun PriceProv5 () Int
    116)
  (define-fun C2_VM14 () Int
    0)
  (define-fun PriceProv12 () Int
    116)
  (define-fun C4_VM8 () Int
    0)
  (define-fun C4_VM1 () Int
    0)
  (define-fun MemProv9 () Int
    3750)
  (define-fun PriceProv14 () Int
    116)
  (define-fun VM4Type () Int
    433)
  (define-fun C2_VM4 () Int
    1)
  (define-fun C3_VM7 () Int
    1)
  (define-fun PriceProv8 () Int
    210)
  (define-fun C1_VM10 () Int
    1)
  (define-fun MemProv5 () Int
    3750)
  (define-fun ProcProv4 () Int
    2)
  (define-fun VM2Type () Int
    433)
  (define-fun C4_VM13 () Int
    0)
  (define-fun StorageProv8 () Int
    2000)
  (define-fun VM8Type () Int
    341)
  (define-fun C1_VM14 () Int
    1)
  (define-fun C3_VM8 () Int
    0)
  (define-fun StorageProv4 () Int
    2000)
  (define-fun ProcProv13 () Int
    2)
  (define-fun ProcProv1 () Int
    2)
  (define-fun StorageProv5 () Int
    2000)
  (define-fun MemProv15 () Int
    3750)
  (define-fun C2_VM6 () Int
    0)
  (define-fun C4_VM15 () Int
    0)
  (define-fun C1_VM5 () Int
    0)
  (define-fun ProcProv3 () Int
    2)
  (define-fun C2_VM10 () Int
    0)
  (define-fun C3_VM1 () Int
    0)
  (define-fun C2_VM5 () Int
    1)
  (define-fun VM12Type () Int
    433)
  (define-fun C4_VM4 () Int
    0)
  (define-fun PriceProv7 () Int
    210)
  (define-fun ProcProv11 () Int
    2)
  (define-fun C1_VM4 () Int
    0)
  (define-fun VM6Type () Int
    341)
  (define-fun C2_VM9 () Int
    0)
  (define-fun C5_VM10 () Int
    0)
  (define-fun C4_VM2 () Int
    0)
  (define-fun StorageProv13 () Int
    2000)
  (define-fun C4_VM12 () Int
    0)
  (define-fun C3_VM9 () Int
    0)
  (define-fun C1_VM6 () Int
    0)
  (define-fun MemProv6 () Int
    7500)
  (define-fun MemProv7 () Int
    7500)
  (define-fun StorageProv3 () Int
    2000)
  (define-fun C3_VM15 () Int
    0)
  (define-fun VM7Type () Int
    341)
  (define-fun StorageProv12 () Int
    2000)
  (define-fun C1_VM9 () Int
    1)
  (define-fun PriceProv10 () Int
    116)
  (define-fun C4_VM3 () Int
    0)
  (define-fun PriceProv3 () Int
    116)
  (define-fun MemProv8 () Int
    7500)
  (define-fun C4_VM9 () Int
    0)
  (define-fun PriceProv4 () Int
    116)
  (define-fun ProcProv2 () Int
    2)
  (define-fun C2_VM12 () Int
    0)
  (define-fun C2_VM8 () Int
    0)
  (define-fun VM13Type () Int
    433)
  (define-fun C1_VM11 () Int
    1)
  (define-fun C1_VM7 () Int
    0)
  (define-fun StorageProv1 () Int
    2000)
  (define-fun StorageProv6 () Int
    2000)
  (define-fun MemProv3 () Int
    3750)
  (define-fun StorageProv7 () Int
    2000)
  (define-fun ProcProv9 () Int
    2)
  (define-fun StorageProv2 () Int
    2000)
  (define-fun C1_VM3 () Int
    0)
  (define-fun C2_VM3 () Int
    1)
  (define-fun C5_VM15 () Int
    0)
  (define-fun MemProv2 () Int
    3750)
  (define-fun ProcProv12 () Int
    2)
  (define-fun ProcProv5 () Int
    2)
  (define-fun C5_VM12 () Int
    0)
  (define-fun C3_VM11 () Int
    0)
  (define-fun C5_VM9 () Int
    0)
  (define-fun VM3Type () Int
    433)
  (define-fun PriceProv11 () Int
    116)
  (define-fun C5_VM1 () Int
    0)
  (define-fun C2_VM11 () Int
    0)
  (define-fun MemProv1 () Int
    3750)
  (define-fun C4_VM10 () Int
    0)
  (define-fun StorageProv15 () Int
    2000)
  (define-fun MemProv10 () Int
    3750)
  (define-fun C1_VM2 () Int
    0)
  (define-fun C2_VM15 () Int
    0)
  (define-fun C3_VM10 () Int
    0)
  (define-fun ProcProv10 () Int
    2)
  (define-fun ProcProv14 () Int
    2)
  (define-fun PriceProv13 () Int
    116)
  (define-fun C5_VM5 () Int
    0)
  (define-fun C5_VM11 () Int
    0)
  (define-fun ProcProv6 () Int
    4)
  (define-fun C3_VM3 () Int
    0)
  (define-fun C5_VM2 () Int
    0)
  (define-fun C2_VM1 () Int
    1)
  (define-fun C5_VM4 () Int
    0)
  (define-fun C3_VM14 () Int
    0)
  (define-fun C3_VM6 () Int
    0)
  (define-fun C5_VM6 () Int
    1)
  (define-fun C5_VM14 () Int
    0)
  (define-fun C2_VM7 () Int
    0)
  (define-fun ProcProv15 () Int
    2)
  (define-fun C3_VM13 () Int
    0)
  (define-fun C5_VM3 () Int
    0)
  (define-fun PriceProv6 () Int
    210)
  (define-fun C1_VM15 () Int
    1)
  (define-fun C5_VM13 () Int
    0)
  (define-fun C3_VM4 () Int
    0)
  (define-fun VM1Type () Int
    433)
  (define-fun VM5Type () Int
    433)
  (define-fun PriceProv2 () Int
    116)
  (define-fun MemProv14 () Int
    3750)
  (define-fun StorageProv14 () Int
    2000)
  (define-fun C4_VM11 () Int
    0)
  (define-fun PriceProv15 () Int
    116)
  (define-fun VM9Type () Int
    433)
  (define-fun C3_VM2 () Int
    0)
)
(objectives
 ( 52)
 ((+ 0
   PriceProv1
   PriceProv2
   PriceProv3
   PriceProv4
   PriceProv5
   PriceProv6
   PriceProv7
   PriceProv8
   PriceProv9
   PriceProv10
   PriceProv11
   PriceProv12
   PriceProv13
   PriceProv14
   PriceProv15) 2022)
)
(:added-eqs                   2799339
 :arith-eq-adapter            1272679
 :arith-bound-propagations-lp 1996
 :arith-conflicts             80
 :arith-diseq                 2515232
 :arith-fixed-eqs             16032
 :arith-lower                 2952652
 :arith-make-feasible         858944
 :arith-max-columns           675
 :arith-max-rows              47
 :arith-upper                 2221919
 :binary-propagations         9654765
 :bv-bit2core                 67757
 :bv-dynamic-diseqs           5782609
 :bv-dynamic-eqs              7
 :bv->core-eq                 6848
 :conflicts                   10758
 :decisions                   2750534
 :del-clause                  7266987
 :final-checks                46
 :max-memory                  175.58
 :maxsat-cores                15
 :memory                      166.10
 :minimized-lits              21491
 :mk-bool-var                 2519323
 :mk-clause                   7276000
 :mk-clause-binary            37187
 :num-allocs                  84892814040.00
 :num-checks                  81
 :pb-conflicts                2565
 :pb-predicates               7
 :pb-propagations             46689
 :pb-resolves                 40
 :propagations                11952611
 :restarts                    83
 :rlimit-count                143304574
 :time                        31.80
 :total-time                  31.66)
